c Generated barabasi_albert graph
p edge 111 530
e 1 2
e 1 3
e 1 4
e 1 5
e 1 6
e 1 7
e 1 8
e 1 9
e 1 10
e 1 11
e 1 12
e 1 14
e 1 16
e 1 17
e 1 19
e 1 21
e 1 24
e 1 25
e 1 27
e 1 28
e 1 30
e 1 31
e 1 33
e 1 34
e 1 43
e 1 50
e 1 51
e 1 54
e 1 59
e 1 63
e 1 68
e 1 69
e 1 73
e 1 76
e 1 81
e 1 97
e 1 102
e 1 105
e 2 7
e 2 8
e 2 11
e 2 14
e 2 18
e 2 20
e 2 38
e 2 44
e 2 60
e 2 76
e 2 80
e 2 84
e 2 96
e 2 105
e 3 8
e 3 10
e 3 11
e 3 12
e 3 13
e 3 15
e 3 16
e 3 17
e 3 28
e 3 33
e 3 34
e 3 35
e 3 39
e 3 46
e 3 52
e 3 61
e 3 71
e 3 80
e 3 93
e 3 94
e 3 99
e 3 102
e 3 110
e 4 7
e 4 8
e 4 9
e 4 11
e 4 17
e 4 18
e 4 20
e 4 21
e 4 23
e 4 24
e 4 25
e 4 26
e 4 27
e 4 29
e 4 32
e 4 36
e 4 37
e 4 40
e 4 58
e 4 59
e 4 64
e 4 66
e 4 67
e 4 69
e 4 70
e 4 74
e 4 82
e 4 99
e 4 101
e 4 108
e 5 7
e 5 9
e 5 12
e 5 19
e 5 24
e 5 57
e 5 109
e 6 7
e 6 9
e 6 10
e 6 12
e 6 17
e 6 18
e 6 19
e 6 22
e 6 24
e 6 27
e 6 28
e 6 33
e 6 37
e 6 39
e 6 40
e 6 42
e 6 52
e 6 55
e 6 56
e 6 61
e 6 63
e 6 68
e 6 75
e 6 77
e 6 79
e 6 84
e 6 87
e 6 90
e 6 94
e 6 95
e 6 99
e 6 101
e 6 109
e 7 8
e 7 9
e 7 15
e 7 18
e 7 19
e 7 21
e 7 22
e 7 23
e 7 25
e 7 28
e 7 29
e 7 34
e 7 37
e 7 38
e 7 43
e 7 44
e 7 45
e 7 50
e 7 51
e 7 63
e 7 69
e 7 70
e 7 73
e 7 76
e 7 81
e 7 89
e 7 91
e 7 93
e 7 97
e 7 107
e 8 10
e 8 12
e 8 13
e 8 20
e 8 33
e 8 35
e 8 48
e 8 57
e 8 60
e 8 62
e 8 79
e 8 81
e 8 83
e 8 108
e 9 10
e 9 13
e 9 14
e 9 15
e 9 16
e 9 35
e 9 40
e 9 41
e 9 49
e 9 53
e 9 55
e 9 61
e 9 78
e 9 86
e 9 87
e 9 96
e 10 11
e 10 13
e 10 15
e 10 20
e 10 25
e 10 26
e 10 29
e 10 32
e 10 34
e 10 35
e 10 39
e 10 54
e 10 60
e 10 64
e 10 70
e 10 72
e 10 80
e 10 88
e 10 106
e 11 21
e 11 22
e 11 25
e 11 28
e 11 30
e 11 31
e 11 39
e 11 41
e 11 46
e 11 48
e 11 49
e 11 51
e 11 55
e 11 58
e 11 60
e 11 64
e 11 66
e 11 71
e 11 73
e 11 74
e 11 77
e 11 83
e 11 96
e 11 100
e 12 13
e 12 14
e 12 15
e 12 22
e 12 27
e 12 38
e 12 40
e 12 46
e 12 58
e 12 66
e 12 95
e 12 100
e 12 111
e 13 14
e 13 16
e 13 18
e 13 26
e 13 49
e 13 90
e 13 109
e 13 110
e 14 20
e 14 23
e 14 26
e 14 32
e 14 41
e 14 49
e 14 55
e 14 67
e 14 70
e 14 74
e 14 88
e 15 16
e 15 21
e 15 23
e 15 33
e 15 38
e 15 64
e 15 82
e 15 102
e 15 108
e 15 109
e 15 111
e 16 17
e 16 26
e 16 31
e 16 48
e 16 56
e 16 81
e 16 89
e 17 19
e 17 22
e 17 30
e 17 31
e 17 36
e 17 40
e 17 42
e 17 47
e 17 53
e 17 59
e 17 72
e 17 95
e 17 98
e 18 23
e 18 47
e 18 75
e 19 36
e 19 41
e 19 43
e 19 100
e 20 24
e 20 54
e 20 68
e 20 92
e 20 93
e 20 98
e 20 99
e 20 103
e 21 32
e 21 34
e 21 46
e 21 68
e 21 75
e 21 98
e 21 106
e 22 32
e 22 39
e 22 46
e 22 49
e 22 54
e 22 55
e 23 27
e 23 29
e 23 36
e 23 88
e 23 96
e 23 98
e 23 111
e 24 29
e 24 74
e 24 107
e 25 53
e 25 97
e 26 30
e 26 77
e 26 86
e 26 94
e 27 37
e 27 38
e 27 44
e 27 72
e 27 90
e 28 31
e 28 45
e 28 53
e 28 65
e 29 30
e 29 35
e 29 47
e 29 51
e 29 54
e 29 56
e 29 57
e 29 63
e 29 80
e 29 82
e 29 88
e 29 89
e 29 103
e 29 111
e 30 36
e 30 42
e 30 44
e 30 45
e 30 73
e 30 78
e 30 83
e 30 86
e 31 43
e 31 48
e 31 92
e 32 42
e 32 61
e 32 62
e 32 67
e 32 75
e 32 78
e 32 79
e 32 84
e 33 41
e 33 47
e 33 53
e 33 67
e 33 75
e 33 95
e 34 60
e 34 77
e 35 50
e 35 65
e 35 71
e 36 37
e 36 43
e 36 62
e 36 74
e 36 82
e 36 104
e 36 106
e 37 45
e 37 48
e 37 52
e 37 57
e 37 58
e 37 65
e 37 67
e 37 71
e 37 110
e 38 42
e 38 52
e 38 61
e 38 106
e 39 45
e 39 59
e 39 72
e 39 95
e 40 65
e 40 66
e 40 79
e 40 85
e 40 100
e 41 47
e 41 50
e 42 44
e 42 69
e 42 78
e 42 81
e 42 83
e 42 86
e 43 56
e 43 57
e 43 103
e 43 104
e 44 56
e 44 64
e 44 65
e 44 78
e 44 99
e 44 111
e 45 52
e 45 68
e 45 104
e 46 62
e 47 51
e 47 62
e 47 91
e 48 92
e 49 50
e 51 69
e 51 87
e 51 103
e 53 91
e 54 59
e 54 76
e 55 77
e 56 82
e 57 58
e 57 94
e 57 105
e 58 66
e 58 73
e 59 63
e 59 76
e 60 71
e 60 87
e 60 90
e 60 100
e 61 70
e 61 72
e 61 86
e 61 104
e 61 107
e 62 90
e 62 97
e 62 102
e 63 87
e 63 93
e 63 105
e 65 80
e 65 85
e 65 96
e 66 84
e 67 83
e 68 106
e 70 79
e 73 84
e 73 93
e 73 98
e 73 108
e 74 88
e 74 89
e 74 108
e 75 85
e 76 85
e 76 91
e 77 107
e 80 85
e 80 91
e 80 94
e 81 92
e 81 110
e 83 109
e 84 105
e 85 89
e 85 107
e 86 101
e 87 97
e 88 103
e 90 92
e 92 101
e 94 104
e 95 101
e 95 102
e 96 110
